25° run output:
{
    "Function": "ClusterA500.tsp",
    "Problem dimension": [
        329,
        231,
        237,
        232,
        483,
        455,
        295,
        445,
        200,
        410,
        456,
        382,
        223,
        264,
        94,
        299,
        276,
        206,
        101,
        179,
        201,
        297,
        24,
        58,
        403,
        376,
        194,
        169,
        275,
        233,
        354,
        155,
        430,
        493,
        350,
        268,
        137,
        396,
        398,
        52,
        242,
        251,
        144,
        180,
        331,
        36,
        266,
        372,
        92,
        250,
        130,
        440,
        447,
        6,
        146,
        349,
        247,
        256,
        334,
        463,
        474,
        453,
        488,
        57,
        380,
        289,
        498,
        428,
        311,
        419,
        2,
        355,
        70,
        136,
        448,
        69,
        83,
        27,
        255,
        173,
        340,
        147,
        273,
        436,
        134,
        153,
        392,
        467,
        228,
        401,
        285,
        487,
        491,
        315,
        161,
        330,
        254,
        282,
        489,
        309,
        359,
        391,
        100,
        220,
        15,
        408,
        240,
        164,
        320,
        61,
        38,
        95,
        79,
        337,
        122,
        129,
        451,
        494,
        118,
        47,
        78,
        174,
        71,
        249,
        307,
        411,
        163,
        469,
        281,
        356,
        199,
        191,
        472,
        181,
        344,
        450,
        35,
        55,
        235,
        468,
        379,
        486,
        151,
        76,
        126,
        186,
        10,
        261,
        143,
        300,
        176,
        31,
        357,
        274,
        420,
        313,
        189,
        389,
        269,
        145,
        258,
        66,
        45,
        234,
        374,
        444,
        37,
        352,
        7,
        43,
        457,
        190,
        131,
        140,
        170,
        479,
        405,
        316,
        244,
        105,
        292,
        0,
        358,
        238,
        192,
        288,
        84,
        384,
        298,
        139,
        12,
        102,
        142,
        87,
        485,
        171,
        121,
        286,
        149,
        167,
        466,
        202,
        51,
        109,
        8,
        184,
        318,
        30,
        363,
        371,
        417,
        435,
        219,
        495,
        29,
        422,
        42,
        484,
        497,
        341,
        178,
        243,
        394,
        452,
        279,
        441,
        209,
        21,
        454,
        97,
        471,
        294,
        390,
        28,
        116,
        11,
        280,
        478,
        229,
        433,
        154,
        226,
        449,
        291,
        416,
        465,
        464,
        431,
        404,
        427,
        182,
        156,
        377,
        211,
        437,
        310,
        110,
        195,
        13,
        207,
        20,
        400,
        386,
        332,
        3,
        438,
        304,
        336,
        480,
        338,
        481,
        56,
        17,
        308,
        434,
        188,
        426,
        383,
        88,
        148,
        271,
        406,
        365,
        314,
        270,
        284,
        353,
        85,
        415,
        46,
        413,
        399,
        193,
        86,
        462,
        26,
        68,
        367,
        499,
        204,
        351,
        470,
        225,
        388,
        120,
        272,
        112,
        442,
        423,
        429,
        104,
        326,
        81,
        397,
        343,
        49,
        216,
        461,
        18,
        395,
        205,
        287,
        96,
        482,
        293,
        168,
        175,
        290,
        187,
        303,
        185,
        236,
        312,
        418,
        490,
        459,
        59,
        323,
        73,
        160,
        414,
        373,
        196,
        306,
        460,
        277,
        425,
        22,
        103,
        317,
        260,
        325,
        370,
        32,
        246,
        64,
        5,
        239,
        230,
        475,
        114,
        364,
        90,
        214,
        222,
        123,
        166,
        253,
        446,
        210,
        135,
        74,
        198,
        407,
        108,
        113,
        366,
        212,
        385,
        39,
        25,
        48,
        296,
        217,
        208,
        224,
        267,
        278,
        19,
        115,
        339,
        327,
        218,
        183,
        23,
        259,
        328,
        369,
        346,
        41,
        439,
        443,
        77,
        263,
        375,
        476,
        158,
        72,
        157,
        107,
        124,
        381,
        93,
        62,
        361,
        227,
        203,
        347,
        80,
        245,
        54,
        127,
        141,
        432,
        378,
        321,
        75,
        60,
        82,
        322,
        257,
        393,
        125,
        283,
        132,
        111,
        4,
        248,
        221,
        301,
        91,
        492,
        335,
        348,
        65,
        165,
        99,
        458,
        241,
        1,
        172,
        162,
        333,
        473,
        106,
        159,
        345,
        16,
        302,
        9,
        342,
        53,
        40,
        150,
        63,
        117,
        305,
        34,
        360,
        362,
        215,
        133,
        496,
        44,
        197,
        324,
        119,
        402,
        89,
        138,
        409,
        98,
        262,
        252,
        177,
        387,
        67,
        128,
        152,
        368,
        265,
        412,
        33,
        14,
        319,
        477,
        424,
        213,
        421,
        50
    ],
    "Global Optimum": 0,
    "Algorithm": "Genetic algorithm",
    "Parameters": {
        "population": 30,
        "offspring": 30,
        "mutation probability": 0.002,
        "crossover probability": 0.9
    },
    "Fitness": 578007,
    "Solution": [
        329,
        231,
        237,
        232,
        483,
        455,
        295,
        445,
        200,
        410,
        456,
        382,
        223,
        264,
        94,
        299,
        276,
        206,
        101,
        179,
        201,
        297,
        24,
        58,
        403,
        376,
        194,
        169,
        275,
        233,
        354,
        155,
        430,
        493,
        350,
        268,
        137,
        396,
        398,
        52,
        242,
        251,
        144,
        180,
        331,
        36,
        266,
        372,
        92,
        250,
        130,
        440,
        447,
        6,
        146,
        349,
        247,
        256,
        334,
        463,
        474,
        453,
        488,
        57,
        380,
        289,
        498,
        428,
        311,
        419,
        2,
        355,
        70,
        136,
        448,
        69,
        83,
        27,
        255,
        173,
        340,
        147,
        273,
        436,
        134,
        153,
        392,
        467,
        228,
        401,
        285,
        487,
        491,
        315,
        161,
        330,
        254,
        282,
        489,
        309,
        359,
        391,
        100,
        220,
        15,
        408,
        240,
        164,
        320,
        61,
        38,
        95,
        79,
        337,
        122,
        129,
        451,
        494,
        118,
        47,
        78,
        174,
        71,
        249,
        307,
        411,
        163,
        469,
        281,
        356,
        199,
        191,
        472,
        181,
        344,
        450,
        35,
        55,
        235,
        468,
        379,
        486,
        151,
        76,
        126,
        186,
        10,
        261,
        143,
        300,
        176,
        31,
        357,
        274,
        420,
        313,
        189,
        389,
        269,
        145,
        258,
        66,
        45,
        234,
        374,
        444,
        37,
        352,
        7,
        43,
        457,
        190,
        131,
        140,
        170,
        479,
        405,
        316,
        244,
        105,
        292,
        0,
        358,
        238,
        192,
        288,
        84,
        384,
        298,
        139,
        12,
        102,
        142,
        87,
        485,
        171,
        121,
        286,
        149,
        167,
        466,
        202,
        51,
        109,
        8,
        184,
        318,
        30,
        363,
        371,
        417,
        435,
        219,
        495,
        29,
        422,
        42,
        484,
        497,
        341,
        178,
        243,
        394,
        452,
        279,
        441,
        209,
        21,
        454,
        97,
        471,
        294,
        390,
        28,
        116,
        11,
        280,
        478,
        229,
        433,
        154,
        226,
        449,
        291,
        416,
        465,
        464,
        431,
        404,
        427,
        182,
        156,
        377,
        211,
        437,
        310,
        110,
        195,
        13,
        207,
        20,
        400,
        386,
        332,
        3,
        438,
        304,
        336,
        480,
        338,
        481,
        56,
        17,
        308,
        434,
        188,
        426,
        383,
        88,
        148,
        271,
        406,
        365,
        314,
        270,
        284,
        353,
        85,
        415,
        46,
        413,
        399,
        193,
        86,
        462,
        26,
        68,
        367,
        499,
        204,
        351,
        470,
        225,
        388,
        120,
        272,
        112,
        442,
        423,
        429,
        104,
        326,
        81,
        397,
        343,
        49,
        216,
        461,
        18,
        395,
        205,
        287,
        96,
        482,
        293,
        168,
        175,
        290,
        187,
        303,
        185,
        236,
        312,
        418,
        490,
        459,
        59,
        323,
        73,
        160,
        414,
        373,
        196,
        306,
        460,
        277,
        425,
        22,
        103,
        317,
        260,
        325,
        370,
        32,
        246,
        64,
        5,
        239,
        230,
        475,
        114,
        364,
        90,
        214,
        222,
        123,
        166,
        253,
        446,
        210,
        135,
        74,
        198,
        407,
        108,
        113,
        366,
        212,
        385,
        39,
        25,
        48,
        296,
        217,
        208,
        224,
        267,
        278,
        19,
        115,
        339,
        327,
        218,
        183,
        23,
        259,
        328,
        369,
        346,
        41,
        439,
        443,
        77,
        263,
        375,
        476,
        158,
        72,
        157,
        107,
        124,
        381,
        93,
        62,
        361,
        227,
        203,
        347,
        80,
        245,
        54,
        127,
        141,
        432,
        378,
        321,
        75,
        60,
        82,
        322,
        257,
        393,
        125,
        283,
        132,
        111,
        4,
        248,
        221,
        301,
        91,
        492,
        335,
        348,
        65,
        165,
        99,
        458,
        241,
        1,
        172,
        162,
        333,
        473,
        106,
        159,
        345,
        16,
        302,
        9,
        342,
        53,
        40,
        150,
        63,
        117,
        305,
        34,
        360,
        362,
        215,
        133,
        496,
        44,
        197,
        324,
        119,
        402,
        89,
        138,
        409,
        98,
        262,
        252,
        177,
        387,
        67,
        128,
        152,
        368,
        265,
        412,
        33,
        14,
        319,
        477,
        424,
        213,
        421,
        50
    ],
    "Nb of functions evaluations": 400020,
    "Computational time in seconds": 1770.3438611030579,
    "Stopping criterion in evaluations": 400000
}